words_hard_train/3837.qaiger
aag 113 22 0 1 91
2
4
8
12
16
20
24
28
32
34
42
44
48
50
62
64
76
78
90
92
104
106
226
6 3 5
10 6 9
14 10 13
18 14 17
22 18 21
26 22 25
30 26 28
36 32 34
38 33 35
40 37 39
46 42 44
52 49 51
54 48 50
56 53 55
58 46 56
60 59 55
66 63 65
68 62 64
70 67 69
72 61 70
74 73 69
80 77 79
82 76 78
84 81 83
86 75 84
88 87 83
94 91 93
96 90 92
98 95 97
100 89 98
102 101 97
108 105 107
110 104 106
112 109 111
114 103 112
116 115 111
118 41 117
120 40 116
122 119 121
124 23 24
126 125 27
128 123 126
130 31 129
132 74 85
134 133 87
136 11 12
138 137 15
140 135 139
142 59 7
144 2 4
146 47 57
148 145 147
150 2 5
152 47 56
154 151 153
156 43 45
158 155 157
160 149 159
162 142 161
164 60 71
166 165 73
168 7 8
170 169 11
172 167 171
174 162 173
176 166 170
178 175 177
180 134 138
182 178 181
184 141 183
186 88 99
188 187 101
190 15 16
192 191 19
194 189 193
196 184 195
198 188 192
200 197 199
202 102 113
204 203 115
206 19 20
208 207 23
210 204 208
212 200 211
214 205 209
216 213 215
218 122 127
220 216 219
222 130 221
224 27 29
226 223 225
i0 2 y1[0]
i1 2 y1[1]
i2 2 y1[2]
i3 2 y1[3]
i4 2 y1[4]
i5 2 y1[5]
i6 2 y1[6]
i7 2 y1[7]
i8 1 x2[6]
i9 1 x1[6]
i10 1 x2[0]
i11 1 x1[0]
i12 1 x2[1]
i13 1 x1[1]
i14 1 x2[2]
i15 1 x1[2]
i16 1 x2[3]
i17 1 x1[3]
i18 1 x2[4]
i19 1 x1[4]
i20 1 x2[5]
i21 1 x1[5]
o0 bv[0]
c
simplified
  <=
    2 y1
    or
      reverse
        1
      add
        1 x2
        1 x1
