words_hard_train/3837.qaiger.qdimacs
p cnf 113 274
a 32 38 39 45 46 16 17 52 21 22 53 24 25 31 0
e 1 2 3 4 5 6 7 8 9 10 11 12 13 14 15 18 19 20 23 26 27 28 29 30 33 34 35 36 37 40 41 42 43 44 47 48 49 50 51 54 55 56 57 58 59 60 61 62 63 64 65 66 67 68 69 70 71 72 73 74 75 76 77 78 79 80 81 82 83 84 85 86 87 88 89 90 91 92 93 94 95 96 97 98 99 100 101 102 103 104 105 106 107 108 109 110 111 112 113 0
1 2 3 0
-1 -3 0
-2 -3 0
-3 4 5 0
3 -5 0
-4 -5 0
-5 6 7 0
5 -7 0
-6 -7 0
-7 8 9 0
7 -9 0
-8 -9 0
-9 10 11 0
9 -11 0
-10 -11 0
-11 12 13 0
11 -13 0
-12 -13 0
-13 -14 15 0
13 -15 0
14 -15 0
-16 -17 18 0
16 -18 0
17 -18 0
16 17 19 0
-16 -19 0
-17 -19 0
18 19 20 0
-18 -20 0
-19 -20 0
-21 -22 23 0
21 -23 0
22 -23 0
24 25 26 0
-24 -26 0
-25 -26 0
-24 -25 27 0
24 -27 0
25 -27 0
26 27 28 0
-26 -28 0
-27 -28 0
-23 -28 29 0
23 -29 0
28 -29 0
29 27 30 0
-29 -30 0
-27 -30 0
31 32 33 0
-31 -33 0
-32 -33 0
-31 -32 34 0
31 -34 0
32 -34 0
33 34 35 0
-33 -35 0
-34 -35 0
30 -35 36 0
-30 -36 0
35 -36 0
36 34 37 0
-36 -37 0
-34 -37 0
38 39 40 0
-38 -40 0
-39 -40 0
-38 -39 41 0
38 -41 0
39 -41 0
40 41 42 0
-40 -42 0
-41 -42 0
37 -42 43 0
-37 -43 0
42 -43 0
43 41 44 0
-43 -44 0
-41 -44 0
45 46 47 0
-45 -47 0
-46 -47 0
-45 -46 48 0
45 -48 0
46 -48 0
47 48 49 0
-47 -49 0
-48 -49 0
44 -49 50 0
-44 -50 0
49 -50 0
50 48 51 0
-50 -51 0
-48 -51 0
52 53 54 0
-52 -54 0
-53 -54 0
-52 -53 55 0
52 -55 0
53 -55 0
54 55 56 0
-54 -56 0
-55 -56 0
51 -56 57 0
-51 -57 0
56 -57 0
57 55 58 0
-57 -58 0
-55 -58 0
20 58 59 0
-20 -59 0
-58 -59 0
-20 -58 60 0
20 -60 0
58 -60 0
59 60 61 0
-59 -61 0
-60 -61 0
11 -12 62 0
-11 -62 0
12 -62 0
62 13 63 0
-62 -63 0
-13 -63 0
61 -63 64 0
-61 -64 0
63 -64 0
15 64 65 0
-15 -65 0
-64 -65 0
-37 42 66 0
37 -66 0
-42 -66 0
66 43 67 0
-66 -67 0
-43 -67 0
5 -6 68 0
-5 -68 0
6 -68 0
68 7 69 0
-68 -69 0
-7 -69 0
67 69 70 0
-67 -70 0
-69 -70 0
29 3 71 0
-29 -71 0
-3 -71 0
-1 -2 72 0
1 -72 0
2 -72 0
23 28 73 0
-23 -73 0
-28 -73 0
72 73 74 0
-72 -74 0
-73 -74 0
-1 2 75 0
1 -75 0
-2 -75 0
23 -28 76 0
-23 -76 0
28 -76 0
75 76 77 0
-75 -77 0
-76 -77 0
21 22 78 0
-21 -78 0
-22 -78 0
77 78 79 0
-77 -79 0
-78 -79 0
74 79 80 0
-74 -80 0
-79 -80 0
-71 80 81 0
71 -81 0
-80 -81 0
-30 35 82 0
30 -82 0
-35 -82 0
82 36 83 0
-82 -83 0
-36 -83 0
3 -4 84 0
-3 -84 0
4 -84 0
84 5 85 0
-84 -85 0
-5 -85 0
83 85 86 0
-83 -86 0
-85 -86 0
-81 86 87 0
81 -87 0
-86 -87 0
-83 -85 88 0
83 -88 0
85 -88 0
87 88 89 0
-87 -89 0
-88 -89 0
-67 -69 90 0
67 -90 0
69 -90 0
-89 90 91 0
89 -91 0
-90 -91 0
70 91 92 0
-70 -92 0
-91 -92 0
-44 49 93 0
44 -93 0
-49 -93 0
93 50 94 0
-93 -94 0
-50 -94 0
7 -8 95 0
-7 -95 0
8 -95 0
95 9 96 0
-95 -96 0
-9 -96 0
94 96 97 0
-94 -97 0
-96 -97 0
-92 97 98 0
92 -98 0
-97 -98 0
-94 -96 99 0
94 -99 0
96 -99 0
98 99 100 0
-98 -100 0
-99 -100 0
-51 56 101 0
51 -101 0
-56 -101 0
101 57 102 0
-101 -102 0
-57 -102 0
9 -10 103 0
-9 -103 0
10 -103 0
103 11 104 0
-103 -104 0
-11 -104 0
-102 -104 105 0
102 -105 0
104 -105 0
-100 105 106 0
100 -106 0
-105 -106 0
102 104 107 0
-102 -107 0
-104 -107 0
106 107 108 0
-106 -108 0
-107 -108 0
-61 63 109 0
61 -109 0
-63 -109 0
-108 109 110 0
108 -110 0
-109 -110 0
-65 110 111 0
65 -111 0
-110 -111 0
13 14 112 0
-13 -112 0
-14 -112 0
111 112 113 0
-111 -113 0
-112 -113 0
113 0
